certificates/rado_a13_c295_N31.drat
23 21 -31 0
-23 -30 -13 0
-30 -31 0
23 -31 0
d 23 21 -31 0
-31 0
22 0
-13 0
-21 -23 0
d -1 -21 -23 0
-23 0
19 0
27 0
9 0
17 0
-28 0
-10 0
-18 0
-8 0
-26 0
24 0
6 0
14 0
4 0
12 0
30 0
-7 0
-5 0
-15 0
-2 0
-21 0
-3 0
-29 0
0
